000 000 000 000 000 000 000 000 -99 -99 -99 -99 000 000 000 000 -99 -99 -99 -99 -99 000 000 -99 000 000 -99 -99 -99 -99 -99
000 000 000 000 000 000 000 000 -99 -99 -99 -99 -99 -99 000 000 -99 -99 -99 -99 -99 000 000 000 000 -99 -99 000 -99 -99 -99
000 000 000 000 000 000 000 000 -99 -99 -99 -99 -99 -99 000 000 000 -99 -99 000 000 -99 000 000 000 000 000 000 -99 -99 -99
-99 000 000 000 000 000 000 -99 -99 -99 -99 -99 000 -99 000 000 000 -99 -99 000 000 000 000 000 000 -99 000 -99 -99 -99 -99
000 -99 000 000 000 000 000 -99 -99 -99 -99 -99 000 000 000 000 -99 000 -99 000 000 000 -99 000 000 000 -99 -99 -99 -99 -99
000 000 000 000 000 000 -99 000 000 000 -99 -99 000 000 000 -99 -99 000 -99 -99 000 000 000 000 000 -99 -99 -99 -99 -99 -99
-99 000 000 000 000 000 -99 000 000 000 000 -99 000 000 000 -99 000 000 -99 000 000 000 000 000 000 -99 -99 -99 -99 -99 -99
-99 000 000 000 000 -99 -99 000 000 000 000 000 -99 000 000 -99 000 000 000 -99 000 000 000 000 000 -99 -99 -99 -99 -99 -99
000 -99 000 000 -99 -99 -99 -99 000 000 000 000 -99 -99 000 000 -99 000 000 000 000 -99 000 000 000 -99 000 000 -99 -99 -99
-99 000 000 000 000 -99 -99 -99 -99 000 000 000 -99 -99 000 000 -99 000 000 000 000 000 -99 -99 000 000 -99 000 000 000 000
000 000 000 000 000 -99 000 000 000 000 000 000 000 -99 000 000 000 000 000 -99 -99 000 -99 -99 000 -99 -99 -99 000 000 000
000 000 000 000 000 -99 000 000 000 000 000 000 000 000 -99 000 000 000 -99 -99 -99 -99 -99 000 000 -99 000 000 000 000 000
000 000 000 -99 000 000 000 000 000 000 000 000 000 000 -99 000 -99 000 000 000 -99 -99 -99 000 000 -99 000 -99 000 000 000
000 000 000 000 000 000 000 000 000 000 000 000 000 000 -99 000 -99 000 000 000 000 -99 -99 000 000 000 000 000 000 000 000
000 -99 000 000 000 000 000 000 000 000 -99 000 000 000 000 000 000 000 000 000 -99 000 -99 000 000 000 000 000 000 -99 -99
000 -99 000 000 000 000 000 000 000 000 -99 -99 -99 -99 000 000 000 000 000 -99 -99 000 -99 000 000 000 000 000 -99 -99 -99
000 -99 -99 -99 -99 -99 000 000 000 000 -99 -99 -99 -99 000 000 000 000 000 000 -99 000 000 -99 000 000 000 000 -99 000 -99
000 -99 000 -99 -99 -99 000 000 000 000 000 -99 -99 000 000 000 000 000 000 -99 -99 -99 000 -99 000 000 000 -99 -99 000 -99
000 000 000 -99 -99 -99 000 000 000 000 000 000 -99 000 000 000 000 000 000 -99 -99 -99 000 -99 -99 000 -99 -99 -99 000 -99
000 000 000 000 -99 -99 -99 000 000 000 000 000 000 000 000 000 000 -99 -99 000 000 -99 -99 -99 -99 -99 -99 -99 -99 000 -99
000 000 000 000 000 000 -99 -99 000 000 -99 000 000 000 000 000 000 000 000 000 000 -99 000 -99 -99 -99 -99 -99 -99 -99 -99
000 000 000 000 000 000 -99 000 000 000 000 000 000 000 000 000 000 000 000 000 000 000 000 -99 -99 -99 -99 -99 -99 -99 -99
000 000 000 000 000 000 000 000 000 000 000 -99 000 000 000 000 000 000 000 000 000 000 000 -99 -99 -99 -99 -99 -99 -99 -99
000 000 000 000 000 000 000 000 000 000 000 -99 000 000 000 000 000 000 000 000 000 000 000 -99 -99 -99 -99 -99 -99 -99 -99
000 000 000 000 000 000 000 000 000 000 -99 -99 000 000 000 000 000 000 000 000 000 000 -99 -99 -99 -99 -99 -99 -99 -99 -99
000 000 000 000 000 000 000 000 000 000 000 -99 000 000 000 000 000 000 000 000 000 000 -99 -99 -99 -99 -99 -99 -99 -99 -99
000 000 000 000 000 -99 000 000 000 000 000 000 -99 000 000 000 000 000 000 000 000 000 000 -99 -99 -99 -99 -99 -99 -99 -99
000 000 000 -99 000 000 -99 000 000 000 000 -99 -99 000 000 000 -99 000 000 000 000 000 000 -99 -99 -99 -99 -99 -99 -99 000
000 000 000 -99 000 000 000 000 000 000 000 -99 -99 000 000 000 -99 -99 000 000 000 000 -99 -99 -99 -99 -99 -99 -99 -99 000
000 000 000 000 000 000 000 000 000 000 000 -99 -99 000 000 000 -99 -99 000 000 000 000 -99 -99 -99 -99 -99 -99 -99 -99 -99
000 000 000 000 000 000 000 000 000 000 000 -99 -99 000 000 000 -99 -99 000 000 -99 000 -99 -99 -99 -99 -99 -99 -99 -99 -99
000 000 000 000 000 -99 000 -99 000 000 000 -99 -99 000 000 000 -99 000 000 -99 -99 -99 -99 -99 000 -99 -99 -99 -99 -99 -99
000 000 000 000 000 000 000 000 000 000 000 -99 -99 000 000 -99 -99 000 000 -99 -99 -99 -99 000 000 -99 -99 000 000 -99 -99
000 000 000 000 000 000 000 000 000 000 -99 -99 -99 -99 000 -99 000 000 -99 000 -99 -99 -99 000 000 000 000 000 000 000 000
000 000 000 000 000 000 000 000 000 000 000 -99 -99 -99 000 -99 000 -99 000 000 000 -99 000 000 000 000 000 000 000 000 000
000 000 000 000 000 000 000 000 000 000 -99 -99 000 000 000 000 -99 -99 000 000 000 000 000 000 000 000 000 000 000 000 000
000 000 000 000 000 000 000 000 000 000 000 000 000 000 000 000 000 -99 -99 000 000 000 000 000 000 000 000 000 000 000 000
000 000 000 000 000 000 -99 000 000 -99 -99 000 000 000 000 000 000 -99 000 000 000 000 000 000 000 000 000 000 000 -99 000
000 000 000 000 000 000 000 000 -99 -99 -99 -99 000 000 000 000 000 000 000 000 000 000 000 000 000 000 000 000 000 -99 -99
000 000 000 000 000 000 000 -99 -99 -99 -99 000 000 000 000 000 000 000 000 000 000 -99 000 000 000 -99 000 000 000 -99 -99
000 000 000 -99 -99 000 000 000 -99 000 000 000 000 000 000 000 000 000 000 000 -99 000 000 000 000 000 000 000 -99 -99 -99
000 000 -99 -99 -99 000 000 000 000 000 000 000 000 000 000 000 000 000 000 000 -99 -99 000 000 000 -99 -99 -99 -99 -99 -99
000 000 -99 -99 -99 000 -99 -99 -99 000 000 000 000 000 000 000 000 000 000 -99 -99 000 000 000 000 000 -99 -99 -99 -99 -99
000 000 -99 -99 -99 000 000 -99 000 000 000 000 000 000 000 000 000 000 000 -99 -99 000 000 000 000 -99 -99 -99 -99 -99 -99
000 -99 -99 -99 000 000 000 -99 -99 000 000 000 000 000 000 000 000 000 000 -99 -99 000 000 000 000 -99 -99 -99 -99 -99 -99
000 -99 -99 -99 -99 -99 -99 -99 000 000 000 000 000 000 000 000 000 000 000 -99 000 000 000 000 000 000 000 -99 -99 -99 000
000 -99 -99 -99 -99 -99 -99 -99 -99 000 000 000 000 000 000 000 -99 000 000 -99 000 000 001 000 000 000 000 -99 -99 -99 -99
000 -99 -99 -99 -99 -99 -99 -99 000 000 000 000 000 000 000 -99 -99 000 -99 000 000 000 001 001 001 001 -99 -99 000 -99 -99
000 -99 -99 -99 -99 -99 -99 -99 000 000 000 000 000 000 000 -99 000 000 -99 000 000 000 000 000 001 001 000 -99 000 -99 -99
-99 -99 -99 -99 -99 -99 -99 -99 000 000 000 000 000 000 000 -99 -99 000 000 000 000 000 000 000 000 000 000 000 -99 -99 -99
-99 -99 -99 -99 -99 -99 -99 000 000 000 000 000 000 000 -99 -99 000 000 000 000 000 000 000 000 000 000 000 -99 -99 -99 -99
-99 -99 -99 -99 -99 -99 000 000 000 000 000 -99 -99 -99 -99 000 000 000 000 000 000 -99 000 000 000 000 -99 -99 -99 -99 -99
-99 -99 -99 -99 -99 -99 000 000 000 000 000 -99 -99 -99 000 000 000 000 001 000 000 000 -99 -99 000 -99 -99 -99 -99 -99 -99
-99 -99 -99 -99 -99 -99 000 000 000 000 000 -99 -99 000 000 002 001 001 002 001 000 -99 -99 -99 -99 -99 -99 -99 -99 -99 -99
-99 -99 -99 -99 -99 000 000 000 000 000 000 -99 -99 000 001 001 002 002 003 000 000 -99 -99 -99 -99 -99 -99 -99 -99 -99 -99
